
# PYTHONPATH must include directory above plugin directory.
#     Define either externally or here, then import plugin.
sys.path.insert(0, './..')
import main

molecule {
symmetry c1
O
H 1 R
H 1 R 2 A

R = 1.1
A = 104.0
}

set {
  basis sto-3g
  docc [5]
}

set main {
  print 1
  e_convergence 1.0E-6
  cc_maxiter 4
}

energy('main')

main.exampleFN()

